; --full-saturate-quant --inst-when=full-last-call --inst-no-entail --term-db-mode=relevant --random-seed=1 --lang=smt2 --tlimit 33
;(set-option :produce-unsat-cores true)
(set-logic ALL_SUPPORTED)
(declare-sort A$ 0)
(declare-sort Nat$ 0)
(declare-datatypes () ((A_list$ (nil$) (cons$ (hd$ A$) (tl$ A_list$)))))
(declare-codatatypes () ((A_stream$ (sCons$ (shd$ A$) (stl$ A_stream$)))))
(declare-fun n$ () Nat$)
(declare-fun s$ () A_stream$)
(declare-fun u$ () A_list$)
(declare-fun min$ (Nat$ Nat$) Nat$)
(declare-fun size$ (A_list$) Nat$)
(declare-fun take$ (Nat$ A_list$) A_list$)
(declare-fun minus$ (Nat$ Nat$) Nat$)
(declare-fun shift$ (A_list$ A_stream$) A_stream$)
(declare-fun stake$ (Nat$ A_stream$) A_list$)
(declare-fun append$ (A_list$ A_list$) A_list$)
(assert (! (not (= (stake$ n$ (shift$ u$ s$)) (append$ (take$ (min$ (size$ u$) n$) u$) (stake$ (minus$ n$ (size$ u$)) s$)))) :named a0))
(assert (! (forall ((?v0 A_list$) (?v1 A_stream$) (?v2 A_stream$)) (= (= (shift$ ?v0 ?v1) (shift$ ?v0 ?v2)) (= ?v1 ?v2))) :named a1))
(assert (! (forall ((?v0 A_list$) (?v1 A_list$) (?v2 A_stream$)) (= (shift$ (append$ ?v0 ?v1) ?v2) (shift$ ?v0 (shift$ ?v1 ?v2)))) :named a2))
(assert (! (forall ((?v0 Nat$) (?v1 A_stream$)) (= (size$ (stake$ ?v0 ?v1)) ?v0)) :named a3))
(assert (! (forall ((?v0 Nat$) (?v1 Nat$) (?v2 A_stream$)) (= (take$ ?v0 (stake$ ?v1 ?v2)) (stake$ (min$ ?v0 ?v1) ?v2))) :named a4))
(assert (! (forall ((?v0 Nat$) (?v1 A_list$) (?v2 A_stream$)) (= (stake$ ?v0 (shift$ ?v1 ?v2)) (append$ (take$ ?v0 ?v1) (stake$ (minus$ ?v0 (size$ ?v1)) ?v2)))) :named a5))
(assert (! (forall ((?v0 Nat$) (?v1 A_list$) (?v2 A_list$)) (= (take$ ?v0 (append$ ?v1 ?v2)) (append$ (take$ ?v0 ?v1) (take$ (minus$ ?v0 (size$ ?v1)) ?v2)))) :named a6))
(assert (! (forall ((?v0 Nat$) (?v1 A_list$)) (= (size$ (take$ ?v0 ?v1)) (min$ (size$ ?v1) ?v0))) :named a7))
(assert (! (forall ((?v0 Nat$) (?v1 Nat$) (?v2 A_list$)) (= (take$ ?v0 (take$ ?v1 ?v2)) (take$ (min$ ?v0 ?v1) ?v2))) :named a8))
(assert (! (forall ((?v0 A_list$) (?v1 A_list$) (?v2 A_list$) (?v3 A_list$)) (=> (or (= (size$ ?v0) (size$ ?v1)) (= (size$ ?v2) (size$ ?v3))) (= (= (append$ ?v0 ?v2) (append$ ?v1 ?v3)) (and (= ?v0 ?v1) (= ?v2 ?v3))))) :named a9))
(assert (! (forall ((?v0 Nat$) (?v1 Nat$)) (= (min$ (min$ ?v0 ?v1) ?v1) (min$ ?v0 ?v1))) :named a10))
(assert (! (forall ((?v0 Nat$) (?v1 Nat$)) (= (min$ ?v0 (min$ ?v0 ?v1)) (min$ ?v0 ?v1))) :named a11))
(assert (! (forall ((?v0 Nat$)) (= (min$ ?v0 ?v0) ?v0)) :named a12))
(assert (! (forall ((?v0 A_list$) (?v1 A_list$) (?v2 A_list$)) (= (= (append$ ?v0 ?v1) (append$ ?v0 ?v2)) (= ?v1 ?v2))) :named a13))
(assert (! (forall ((?v0 A_list$) (?v1 A_list$) (?v2 A_list$)) (= (= (append$ ?v0 ?v1) (append$ ?v2 ?v1)) (= ?v0 ?v2))) :named a14))
(assert (! (forall ((?v0 A_list$) (?v1 A_list$) (?v2 A_list$)) (= (append$ (append$ ?v0 ?v1) ?v2) (append$ ?v0 (append$ ?v1 ?v2)))) :named a15))
(assert (! (forall ((?v0 Nat$) (?v1 Nat$) (?v2 Nat$)) (= (min$ (minus$ ?v0 ?v1) (minus$ ?v2 ?v1)) (minus$ (min$ ?v0 ?v2) ?v1))) :named a16))
(check-sat)
;(get-unsat-core)
